solution status: optimal solution found
objective value:                                    1
$_153_y                                            21 	(obj:0)
$_153_z                                            19 	(obj:0)
$_148_y                                            22 	(obj:0)
$_148_z                                            19 	(obj:0)
$_136_y                                            23 	(obj:0)
$_136_z                                            21 	(obj:0)
$_152_y                                            20 	(obj:0)
$_152_z                                            19 	(obj:0)
$_134_y                                            25 	(obj:0)
$_134_z                                            23 	(obj:0)
$_137_y                                            25 	(obj:0)
$_137_z                                            20 	(obj:0)
$_151_y                                            20 	(obj:0)
$_151_z                                            20 	(obj:0)
$_133_y                                            24 	(obj:0)
$_133_z                                            23 	(obj:0)
$_138_y                                            24 	(obj:0)
$_138_z                                            20 	(obj:0)
$_144_y                                            23 	(obj:0)
$_144_z                                            22 	(obj:0)
$_146_y                                            24 	(obj:0)
$_146_z                                            19 	(obj:0)
$_145_y                                            24 	(obj:0)
$_145_z                                            21 	(obj:0)
$_150_y                                            20 	(obj:0)
$_150_z                                            24 	(obj:0)
$_149_y                                            21 	(obj:0)
$_149_z                                            20 	(obj:0)
$_135_y                                            24 	(obj:0)
$_135_z                                            22 	(obj:0)
$_147_y                                            23 	(obj:0)
$_147_z                                            20 	(obj:0)
x48                                                 1 	(obj:1)
